c n orig vars 311
p cnf 601 1143
442 0
543 -508 0
543 -580 0
-543 508 580 0
313 -509 0
313 -314 0
-313 509 314 0
314 -522 0
314 -280 0
314 -279 0
-314 522 280 279 0
315 -511 0
315 -314 0
-315 511 314 0
316 -409 0
316 -373 0
-316 409 373 0
-317 319 0
-317 320 0
317 -319 -320 0
-318 501 0
-318 502 0
318 -501 -502 0
319 -258 0
319 -195 0
-319 258 195 0
320 -214 0
320 -198 0
-320 214 198 0
321 -384 0
321 -381 0
-321 384 381 0
-322 321 0
-322 13 0
322 -321 -13 0
323 -34 0
323 -101 0
-323 34 101 0
324 -80 0
324 -65 0
-324 80 65 0
-325 501 0
-325 502 0
325 -501 -502 0
-326 324 0
-326 323 0
326 -324 -323 0
-327 326 0
-327 325 0
327 -326 -325 0
328 -79 0
328 -78 0
-328 79 78 0
-527 534 0
-527 270 0
527 -534 -270 0
329 -269 0
329 -287 0
329 -530 0
329 -288 0
-329 269 287 530 288 0
548 -7 0
548 -10 0
-548 7 10 0
488 -451 0
488 -487 0
-488 451 487 0
528 -276 0
528 -527 0
-528 276 527 0
-333 599 0
-333 598 0
333 -599 -598 0
-334 343 0
-334 342 0
334 -343 -342 0
-335 597 0
-335 598 0
335 -597 -598 0
336 -334 0
336 -333 0
-336 334 333 0
-337 596 0
-337 598 0
337 -596 -598 0
338 -336 0
338 -335 0
-338 336 335 0
339 -338 0
339 -337 0
-339 338 337 0
-381 354 0
-381 355 0
381 -354 -355 0
342 -476 0
342 -536 0
-342 476 536 0
-343 601 0
-343 600 0
343 -601 -600 0
344 -233 0
344 -345 0
-344 233 345 0
-345 350 0
-345 270 0
345 -350 -270 0
346 -274 0
346 -273 0
346 -260 0
346 -259 0
346 -236 0
346 -237 0
346 -234 0
346 -235 0
-346 274 273 260 259 236 237 234 235 0
-347 501 0
-347 502 0
347 -501 -502 0
348 -246 0
348 -284 0
348 -285 0
-348 246 284 285 0
349 -286 0
349 -421 0
-349 286 421 0
350 -269 0
350 -272 0
350 -351 0
350 -230 0
-350 269 272 351 230 0
351 -231 0
351 -273 0
351 -260 0
351 -236 0
351 -228 0
351 -229 0
351 -283 0
351 -234 0
-351 231 273 260 236 228 229 283 234 0
352 -80 0
352 -65 0
-352 80 65 0
353 -34 0
353 -101 0
-353 34 101 0
-354 352 0
-354 353 0
354 -352 -353 0
-355 501 0
-355 502 0
355 -501 -502 0
356 -262 0
356 -263 0
-356 262 263 0
-357 590 0
-357 347 0
357 -590 -347 0
-358 359 0
-358 76 0
358 -359 -76 0
359 -356 0
359 -357 0
-359 356 357 0
360 -21 0
360 -134 0
360 -133 0
360 -17 0
360 -24 0
360 -23 0
360 -120 0
360 -19 0
-360 21 134 133 17 24 23 120 19 0
361 -139 0
361 -134 0
361 -133 0
361 -18 0
361 -17 0
361 -20 0
361 -19 0
361 -22 0
-361 139 134 133 18 17 20 19 22 0
362 -296 0
362 -134 0
362 -133 0
362 -18 0
362 -24 0
362 -20 0
362 -295 0
362 -120 0
-362 296 134 133 18 24 20 295 120 0
363 -12 0
363 -134 0
363 -18 0
363 -17 0
363 -24 0
363 -23 0
363 -295 0
363 -22 0
-363 12 134 18 17 24 23 295 22 0
364 -256 0
364 -298 0
364 -291 0
364 -293 0
364 -255 0
364 -254 0
364 -253 0
364 -300 0
-364 256 298 291 293 255 254 253 300 0
365 -297 0
365 -298 0
365 -291 0
365 -292 0
365 -293 0
365 -294 0
365 -300 0
365 -301 0
-365 297 298 291 292 293 294 300 301 0
366 -250 0
366 -298 0
366 -291 0
366 -292 0
366 -255 0
366 -294 0
366 -251 0
366 -253 0
-366 250 298 291 292 255 294 251 253 0
367 -372 0
367 -67 0
-367 372 67 0
368 -496 0
368 -249 0
-368 496 249 0
369 -368 0
369 -495 0
-369 368 495 0
370 -252 0
370 -298 0
370 -292 0
370 -293 0
370 -255 0
370 -254 0
370 -251 0
370 -301 0
-370 252 298 292 293 255 254 251 301 0
-371 406 0
-371 410 0
371 -406 -410 0
372 -64 0
372 -66 0
-372 64 66 0
373 -468 0
373 -281 0
-373 468 281 0
375 -409 0
375 -373 0
-375 409 373 0
-376 379 0
-376 378 0
376 -379 -378 0
377 -264 0
377 -265 0
-377 264 265 0
-378 501 0
-378 502 0
378 -501 -502 0
-379 386 0
-379 385 0
379 -386 -385 0
380 -34 0
380 -31 0
-380 34 31 0
484 -80 0
484 -39 0
-484 80 39 0
382 -377 0
382 -376 0
-382 377 376 0
-383 382 0
-383 13 0
383 -382 -13 0
-431 513 0
-431 514 0
431 -513 -514 0
385 -34 0
385 -31 0
-385 34 31 0
386 -80 0
386 -39 0
-386 80 39 0
584 -34 0
584 -77 0
-584 34 77 0
387 -269 0
387 -272 0
387 -346 0
387 -271 0
-387 269 272 346 271 0
-388 387 0
-388 270 0
388 -387 -270 0
389 -367 0
389 -371 0
-389 367 371 0
390 -393 0
390 -392 0
-390 393 392 0
391 -575 0
391 -313 0
-391 575 313 0
392 -267 0
392 -388 0
-392 267 388 0
393 -246 0
393 -247 0
393 -268 0
-393 246 247 268 0
-394 573 0
-394 315 0
394 -573 -315 0
395 -394 0
395 -397 0
-395 394 397 0
396 -391 0
396 -397 0
-396 391 397 0
397 -390 0
397 -241 0
397 -494 0
397 -365 0
397 -361 0
-397 390 241 494 365 361 0
-398 401 0
-398 138 0
398 -401 -138 0
399 -398 0
399 -403 0
-399 398 403 0
400 -402 0
400 -401 0
-400 402 401 0
401 -163 0
401 -164 0
401 -171 0
-401 163 164 171 0
-402 403 0
-402 143 0
402 -403 -143 0
403 -172 0
403 -140 0
403 -182 0
-403 172 140 182 0
-404 592 0
-404 144 0
404 -592 -144 0
405 -404 0
405 -594 0
-405 404 594 0
552 -551 0
552 -554 0
-552 551 554 0
-406 473 0
-406 579 0
406 -473 -579 0
547 -431 0
547 -414 0
-547 431 414 0
409 -137 0
409 -186 0
409 -428 0
-409 137 186 428 0
428 -176 0
428 -173 0
428 -194 0
428 -190 0
-428 176 173 194 190 0
575 -316 0
575 -574 0
-575 316 574 0
530 -289 0
530 -273 0
530 -259 0
530 -236 0
530 -228 0
530 -229 0
530 -290 0
530 -235 0
-530 289 273 259 236 228 229 290 235 0
412 -559 0
412 -278 0
-412 559 278 0
531 -214 0
531 -160 0
-531 214 160 0
414 -389 0
414 -488 0
-414 389 488 0
415 -409 0
415 -412 0
-415 409 412 0
532 -243 0
532 -159 0
-532 243 159 0
417 -124 0
417 -576 0
417 -418 0
417 -419 0
-417 124 576 418 419 0
418 -239 0
418 -240 0
-418 239 240 0
419 -131 0
419 -132 0
419 -129 0
419 -130 0
419 -135 0
419 -136 0
-419 131 132 129 130 135 136 0
420 -119 0
420 -153 0
420 -158 0
420 -25 0
420 -223 0
420 -222 0
420 -225 0
420 -27 0
-420 119 153 158 25 223 222 225 27 0
441 -224 0
441 -32 0
441 -204 0
441 -33 0
441 -149 0
441 -147 0
441 -47 0
441 -118 0
-441 224 32 204 33 149 147 47 118 0
422 -423 0
422 -48 0
422 -424 0
422 -425 0
422 -49 0
422 -441 0
422 -420 0
-422 423 48 424 425 49 441 420 0
423 -50 0
423 -43 0
-423 50 43 0
-424 426 0
-424 502 0
424 -426 -502 0
425 -467 0
425 -46 0
-425 467 46 0
426 -44 0
426 -45 0
-426 44 45 0
534 -269 0
534 -287 0
534 -533 0
534 -11 0
-534 269 287 533 11 0
455 -322 0
455 -299 0
455 -244 0
-455 322 299 244 0
429 -430 0
429 -540 0
-429 430 540 0
-430 539 0
-430 542 0
430 -539 -542 0
521 -184 0
521 -183 0
521 -178 0
521 -177 0
521 -180 0
521 -179 0
-521 184 183 178 177 180 179 0
474 -363 0
474 -370 0
474 -492 0
474 -5 0
474 -438 0
-474 363 370 492 5 438 0
432 -415 0
432 -455 0
-432 415 455 0
433 -510 0
433 -578 0
-433 510 578 0
434 -435 0
434 -474 0
-434 435 474 0
435 -436 0
435 -437 0
-435 436 437 0
436 -577 0
436 -455 0
-436 577 455 0
437 -508 0
437 -578 0
-437 508 578 0
438 -348 0
438 -349 0
-438 348 349 0
439 -490 0
439 -489 0
-439 490 489 0
440 -587 0
440 -92 0
-440 587 92 0
-442 339 0
442 -339 0
-443 588 0
-443 501 0
443 -588 -501 0
444 -445 0
444 -446 0
-444 445 446 0
445 -447 0
445 -448 0
-445 447 448 0
446 -304 0
446 -303 0
-446 304 303 0
447 -266 0
447 -51 0
-447 266 51 0
448 -55 0
448 -305 0
-448 55 305 0
449 -444 0
449 -450 0
-449 444 450 0
450 -248 0
450 -203 0
450 -206 0
-450 248 203 206 0
451 -439 0
451 -566 0
-451 439 566 0
-452 501 0
-452 502 0
452 -501 -502 0
-453 459 0
-453 458 0
453 -459 -458 0
454 -197 0
454 -213 0
454 -218 0
454 -216 0
454 -192 0
454 -191 0
454 -215 0
454 -220 0
-454 197 213 218 216 192 191 215 220 0
-562 453 0
-562 452 0
562 -453 -452 0
456 -461 0
456 -193 0
-456 461 193 0
457 -456 0
457 -462 0
-457 456 462 0
458 -214 0
458 -198 0
-458 214 198 0
459 -258 0
459 -195 0
-459 258 195 0
-460 463 0
-460 76 0
460 -463 -76 0
461 -156 0
461 -213 0
461 -219 0
461 -216 0
461 -192 0
461 -191 0
461 -157 0
461 -221 0
-461 156 213 219 216 192 191 157 221 0
-462 565 0
-462 535 0
462 -565 -535 0
463 -328 0
463 -327 0
-463 328 327 0
464 -15 0
464 -162 0
464 -14 0
464 -154 0
464 -105 0
464 -181 0
-464 15 162 14 154 105 181 0
465 -3 0
465 -8 0
-465 3 8 0
466 -89 0
466 -422 0
466 -465 0
466 -464 0
-466 89 422 465 464 0
467 -41 0
467 -42 0
-467 41 42 0
468 -84 0
468 -469 0
468 -515 0
468 -472 0
468 -521 0
-468 84 469 515 472 521 0
469 -470 0
469 -471 0
-469 470 471 0
470 -86 0
470 -32 0
470 -211 0
470 -33 0
470 -149 0
470 -147 0
470 -85 0
470 -121 0
-470 86 32 211 33 149 147 85 121 0
471 -88 0
471 -153 0
471 -26 0
471 -25 0
471 -223 0
471 -222 0
471 -87 0
471 -30 0
-471 88 153 26 25 223 222 87 30 0
472 -556 0
472 -571 0
-472 556 571 0
515 -9 0
515 -6 0
-515 9 6 0
566 -308 0
566 -303 0
-566 308 303 0
-475 432 0
-475 433 0
475 -432 -433 0
476 -475 0
476 -474 0
-476 475 474 0
477 -589 0
477 -480 0
-477 589 480 0
478 -375 0
478 -585 0
-478 375 585 0
479 -511 0
479 -340 0
-479 511 340 0
480 -360 0
480 -364 0
480 -493 0
480 -4 0
480 -481 0
-480 360 364 493 4 481 0
481 -591 0
481 -344 0
-481 591 344 0
482 -316 0
482 -585 0
-482 316 585 0
483 -509 0
483 -340 0
-483 509 340 0
589 -483 0
589 -482 0
-589 483 482 0
-485 479 0
-485 478 0
485 -479 -478 0
486 -485 0
486 -480 0
-486 485 480 0
487 -205 0
487 -208 0
487 -207 0
-487 205 208 207 0
585 -358 0
585 -245 0
585 -242 0
-585 358 245 242 0
489 -309 0
489 -305 0
-489 309 305 0
490 -302 0
490 -51 0
-490 302 51 0
491 -57 0
491 -56 0
491 -105 0
491 -202 0
491 -59 0
491 -58 0
491 -54 0
491 -53 0
-491 57 56 105 202 59 58 54 53 0
492 -90 0
492 -91 0
492 -154 0
492 -199 0
492 -61 0
492 -60 0
492 -63 0
492 -62 0
-492 90 91 154 199 61 60 63 62 0
493 -95 0
493 -96 0
493 -135 0
493 -180 0
493 -97 0
493 -98 0
493 -99 0
493 -100 0
-493 95 96 135 180 97 98 99 100 0
494 -142 0
494 -141 0
494 -130 0
494 -177 0
494 -152 0
494 -148 0
494 -93 0
494 -94 0
-494 142 141 130 177 152 148 93 94 0
-495 497 0
-495 498 0
495 -497 -498 0
496 -212 0
496 -213 0
496 -218 0
496 -219 0
496 -216 0
496 -217 0
496 -220 0
496 -221 0
-496 212 213 218 219 216 217 220 221 0
-497 499 0
-497 500 0
497 -499 -500 0
-498 501 0
-498 502 0
498 -501 -502 0
499 -258 0
499 -257 0
-499 258 257 0
500 -214 0
500 -52 0
-500 214 52 0
501 -307 0
501 -306 0
-501 307 306 0
502 -311 0
502 -310 0
-502 311 310 0
503 -504 0
503 -562 0
-503 504 562 0
504 -454 0
504 -196 0
-504 454 196 0
-505 581 0
-505 35 0
505 -581 -35 0
507 -466 0
507 -282 0
-507 466 282 0
508 -409 0
508 -507 0
-508 409 507 0
509 -409 0
509 -512 0
-509 409 512 0
510 -409 0
510 -507 0
-510 409 507 0
511 -409 0
511 -512 0
-511 409 512 0
512 -417 0
512 -102 0
-512 417 102 0
557 -516 0
557 -560 0
-557 516 560 0
514 -330 0
514 -569 0
514 -399 0
-514 330 569 399 0
560 -40 0
560 -153 0
560 -158 0
560 -26 0
560 -223 0
560 -28 0
560 -87 0
560 -225 0
-560 40 153 158 26 223 28 87 225 0
516 -37 0
516 -32 0
516 -204 0
516 -211 0
516 -149 0
516 -123 0
516 -85 0
516 -47 0
-516 37 32 204 211 149 123 85 47 0
-517 518 0
-517 501 0
517 -518 -501 0
518 -80 0
518 -39 0
-518 80 39 0
519 -520 0
519 -517 0
-519 520 517 0
520 -82 0
520 -81 0
-520 82 81 0
-556 312 0
-556 570 0
556 -312 -570 0
571 -411 0
571 -449 0
-571 411 449 0
-410 501 0
-410 502 0
410 -501 -502 0
580 -505 0
580 -103 0
580 -146 0
-580 505 103 146 0
-596 600 0
-596 342 0
596 -600 -342 0
577 -409 0
577 -412 0
-577 409 412 0
330 -71 0
330 -150 0
330 -151 0
330 -112 0
330 -114 0
330 -110 0
330 -70 0
330 -107 0
-330 71 150 151 112 114 110 70 107 0
525 -106 0
525 -150 0
525 -112 0
525 -111 0
525 -114 0
525 -113 0
525 -70 0
525 -116 0
-525 106 150 112 111 114 113 70 116 0
529 -537 0
529 -68 0
-529 537 68 0
411 -529 0
411 -538 0
-411 529 538 0
-413 477 0
-413 494 0
413 -477 -494 0
-416 396 0
-416 493 0
416 -396 -493 0
572 -115 0
572 -150 0
572 -151 0
572 -111 0
572 -114 0
572 -113 0
572 -107 0
572 -109 0
-572 115 150 151 111 114 113 107 109 0
427 -188 0
427 -150 0
427 -151 0
427 -112 0
427 -111 0
427 -110 0
427 -109 0
427 -116 0
-427 188 150 151 112 111 110 109 116 0
-553 541 0
-553 492 0
553 -541 -492 0
-536 434 0
-536 491 0
536 -434 -491 0
537 -69 0
537 -66 0
-537 69 66 0
-538 317 0
-538 318 0
538 -317 -318 0
341 -526 0
341 -586 0
-341 526 586 0
-331 341 0
-331 83 0
331 -341 -83 0
541 -544 0
541 -540 0
-541 544 540 0
542 -415 0
542 -506 0
-542 415 506 0
578 -549 0
578 -277 0
578 -146 0
-578 549 277 146 0
544 -543 0
544 -546 0
-544 543 546 0
545 -408 0
545 -528 0
-545 408 528 0
546 -577 0
546 -506 0
-546 577 506 0
570 -503 0
570 -405 0
570 -572 0
-570 503 405 572 0
312 -369 0
312 -593 0
312 -427 0
-312 369 593 427 0
-549 552 0
-549 35 0
549 -552 -35 0
550 -175 0
550 -174 0
550 -200 0
550 -199 0
550 -202 0
550 -201 0
-550 175 174 200 199 202 201 0
551 -36 0
551 -210 0
-551 36 210 0
579 -214 0
579 -160 0
-579 214 160 0
524 -34 0
524 -31 0
-524 34 31 0
-554 524 0
-554 502 0
554 -524 -502 0
539 -510 0
539 -580 0
-539 510 580 0
513 -525 0
513 -457 0
513 -400 0
-513 525 457 400 0
558 -80 0
558 -72 0
-558 80 72 0
559 -38 0
559 -557 0
559 -548 0
559 -547 0
559 -550 0
-559 38 557 548 547 550 0
540 -362 0
540 -366 0
540 -491 0
540 -2 0
540 -545 0
-540 362 366 491 2 545 0
-561 532 0
-561 531 0
561 -532 -531 0
-332 501 0
-332 502 0
332 -501 -502 0
563 -243 0
563 -189 0
-563 243 189 0
564 -214 0
564 -155 0
-564 214 155 0
-565 563 0
-565 564 0
565 -563 -564 0
-535 501 0
-535 502 0
535 -501 -502 0
-567 561 0
-567 332 0
567 -561 -332 0
568 -161 0
568 -213 0
568 -218 0
568 -219 0
568 -192 0
568 -217 0
568 -157 0
568 -215 0
-568 161 213 218 219 192 217 157 215 0
569 -374 0
569 -567 0
-569 374 567 0
374 -568 0
374 -108 0
-374 568 108 0
384 -16 0
384 -261 0
-384 16 261 0
-421 329 0
-421 270 0
421 -329 -270 0
573 -375 0
573 -574 0
-573 375 574 0
574 -460 0
574 -1 0
574 -242 0
-574 460 1 242 0
523 -128 0
523 -125 0
-523 128 125 0
576 -523 0
576 -122 0
576 -443 0
576 -440 0
576 -127 0
576 -407 0
576 -555 0
-576 523 122 443 440 127 407 555 0
407 -29 0
407 -32 0
407 -204 0
407 -211 0
407 -33 0
407 -123 0
407 -118 0
407 -121 0
-407 29 32 204 211 33 123 118 121 0
555 -104 0
555 -153 0
555 -158 0
555 -26 0
555 -25 0
555 -28 0
555 -27 0
555 -30 0
-555 104 153 158 26 25 28 27 30 0
340 -331 0
340 -275 0
340 -279 0
-340 331 275 279 0
473 -243 0
473 -159 0
-473 243 159 0
581 -582 0
581 -583 0
-581 582 583 0
582 -75 0
582 -74 0
-582 75 74 0
-583 584 0
-583 502 0
583 -584 -502 0
-522 519 0
-522 83 0
522 -519 -83 0
526 -209 0
526 -73 0
-526 209 73 0
-586 558 0
-586 501 0
586 -558 -501 0
587 -227 0
587 -226 0
-587 227 226 0
588 -126 0
588 -117 0
-588 126 117 0
533 -185 0
533 -273 0
533 -260 0
533 -259 0
533 -228 0
533 -237 0
533 -290 0
533 -283 0
-533 185 273 260 259 228 237 290 283 0
408 -246 0
408 -284 0
408 -145 0
-408 246 284 145 0
-590 484 0
-590 380 0
590 -484 -380 0
591 -246 0
591 -247 0
591 -232 0
-591 246 247 232 0
592 -169 0
592 -170 0
592 -167 0
-592 169 170 167 0
593 -595 0
593 -592 0
-593 595 592 0
594 -168 0
594 -165 0
594 -166 0
-594 168 165 166 0
-595 594 0
-595 187 0
595 -594 -187 0
506 -383 0
506 -238 0
506 -244 0
-506 383 238 244 0
-597 601 0
-597 342 0
597 -601 -342 0
598 -429 0
598 -553 0
-598 429 553 0
-599 601 0
-599 600 0
599 -601 -600 0
600 -486 0
600 -413 0
-600 486 413 0
601 -395 0
601 -416 0
-601 395 416 0
